100
128
17
50
33
41
42
3
60
7
7
42
43
56
3
26
1
36
15
64
6
15
19
16
28
8
56
62
21
8
10
49
33
12
52
34
27
2
59
56
15
13
60
24
30
42
15
48
22
3
34
9
26
27
2
27
62
48
27
16
61
37
17
41
15
17
19
19
62
40
31
62
25
40
57
35
47
61
37
50
1
40
20
30
13
19
59
56
45
31
40
29
1
57
2
2
6
32
37
46
2
42